100
    1   781   781
    2   742   742
    3   942   942
    4   442   442
    5   856   856
    6   968   968
    7   925   925
    8   168   168
    9   714   714
   10   377   377
   11   763   763
   12   357   357
   13    75    75
   14   217   217
   15   541   541
   16   919   919
   17   819   819
   18   694   694
   19   812   812
   20   134   134
   21   825   825
   22   487   487
   23   237   237
   24   127   127
   25   810   810
   26   299   299
   27   886   886
   28   430   430
   29   306   306
   30   359   359
   31   846   846
   32  1000  1000
   33   707   707
   34    30    30
   35   618   618
   36   238   238
   37   679   679
   38   386   386
   39   208   208
   40   669   669
   41    51    51
   42   753   753
   43   953   953
   44    59    59
   45   738   738
   46   140   140
   47  1000  1000
   48   596   596
   49   682   682
   50    57    57
   51   970   970
   52   570   570
   53   824   824
   54   384   384
   55   657   657
   56   747   747
   57   315   315
   58   586   586
   59   497   497
   60    28    28
   61   919   919
   62   861   861
   63   677   677
   64   956   956
   65   785   785
   66   524   524
   67   335   335
   68   475   475
   69   306   306
   70   339   339
   71   515   515
   72   353   353
   73    98    98
   74   785   785
   75   614   614
   76   483   483
   77   202   202
   78   958   958
   79   680   680
   80   847   847
   81   853   853
   82   868   868
   83   563   563
   84   129   129
   85   948   948
   86    49    49
   87   159   159
   88   303   303
   89   125   125
   90   378   378
   91   156   156
   92   311   311
   93   471   471
   94   836   836
   95   915   915
   96   184   184
   97   981   981
   98   412   412
   99   202   202
  100   437   437
8998
